c CNF file corresponding to a (partial) station packing problem.
p cnf 3182 229
1 2 3 4 5 6 7 8 9 10 11 12 13 14 0
-1 -2 0
-1 -3 0
-1 -4 0
-1 -5 0
-1 -6 0
-1 -7 0
-1 -8 0
-1 -9 0
-1 -10 0
-1 -11 0
-1 -12 0
-1 -13 0
-1 -14 0
-2 -3 0
-2 -4 0
-2 -5 0
-2 -6 0
-2 -7 0
-2 -8 0
-2 -9 0
-2 -10 0
-2 -11 0
-2 -12 0
-2 -13 0
-2 -14 0
-3 -4 0
-3 -5 0
-3 -6 0
-3 -7 0
-3 -8 0
-3 -9 0
-3 -10 0
-3 -11 0
-3 -12 0
-3 -13 0
-3 -14 0
-4 -5 0
-4 -6 0
-4 -7 0
-4 -8 0
-4 -9 0
-4 -10 0
-4 -11 0
-4 -12 0
-4 -13 0
-4 -14 0
-5 -6 0
-5 -7 0
-5 -8 0
-5 -9 0
-5 -10 0
-5 -11 0
-5 -12 0
-5 -13 0
-5 -14 0
-6 -7 0
-6 -8 0
-6 -9 0
-6 -10 0
-6 -11 0
-6 -12 0
-6 -13 0
-6 -14 0
-7 -8 0
-7 -9 0
-7 -10 0
-7 -11 0
-7 -12 0
-7 -13 0
-7 -14 0
-8 -9 0
-8 -10 0
-8 -11 0
-8 -12 0
-8 -13 0
-8 -14 0
-9 -10 0
-9 -11 0
-9 -12 0
-9 -13 0
-9 -14 0
-10 -11 0
-10 -12 0
-10 -13 0
-10 -14 0
-11 -12 0
-11 -13 0
-11 -14 0
-12 -13 0
-12 -14 0
-13 -14 0
3166 3167 3168 3169 3170 3171 3172 3173 3174 3175 3176 3177 3178 3179 3180 3181 3182 0
-3166 -3167 0
-3166 -3168 0
-3166 -3169 0
-3166 -3170 0
-3166 -3171 0
-3166 -3172 0
-3166 -3173 0
-3166 -3174 0
-3166 -3175 0
-3166 -3176 0
-3166 -3177 0
-3166 -3178 0
-3166 -3179 0
-3166 -3180 0
-3166 -3181 0
-3166 -3182 0
-3167 -3168 0
-3167 -3169 0
-3167 -3170 0
-3167 -3171 0
-3167 -3172 0
-3167 -3173 0
-3167 -3174 0
-3167 -3175 0
-3167 -3176 0
-3167 -3177 0
-3167 -3178 0
-3167 -3179 0
-3167 -3180 0
-3167 -3181 0
-3167 -3182 0
-3168 -3169 0
-3168 -3170 0
-3168 -3171 0
-3168 -3172 0
-3168 -3173 0
-3168 -3174 0
-3168 -3175 0
-3168 -3176 0
-3168 -3177 0
-3168 -3178 0
-3168 -3179 0
-3168 -3180 0
-3168 -3181 0
-3168 -3182 0
-3169 -3170 0
-3169 -3171 0
-3169 -3172 0
-3169 -3173 0
-3169 -3174 0
-3169 -3175 0
-3169 -3176 0
-3169 -3177 0
-3169 -3178 0
-3169 -3179 0
-3169 -3180 0
-3169 -3181 0
-3169 -3182 0
-3170 -3171 0
-3170 -3172 0
-3170 -3173 0
-3170 -3174 0
-3170 -3175 0
-3170 -3176 0
-3170 -3177 0
-3170 -3178 0
-3170 -3179 0
-3170 -3180 0
-3170 -3181 0
-3170 -3182 0
-3171 -3172 0
-3171 -3173 0
-3171 -3174 0
-3171 -3175 0
-3171 -3176 0
-3171 -3177 0
-3171 -3178 0
-3171 -3179 0
-3171 -3180 0
-3171 -3181 0
-3171 -3182 0
-3172 -3173 0
-3172 -3174 0
-3172 -3175 0
-3172 -3176 0
-3172 -3177 0
-3172 -3178 0
-3172 -3179 0
-3172 -3180 0
-3172 -3181 0
-3172 -3182 0
-3173 -3174 0
-3173 -3175 0
-3173 -3176 0
-3173 -3177 0
-3173 -3178 0
-3173 -3179 0
-3173 -3180 0
-3173 -3181 0
-3173 -3182 0
-3174 -3175 0
-3174 -3176 0
-3174 -3177 0
-3174 -3178 0
-3174 -3179 0
-3174 -3180 0
-3174 -3181 0
-3174 -3182 0
-3175 -3176 0
-3175 -3177 0
-3175 -3178 0
-3175 -3179 0
-3175 -3180 0
-3175 -3181 0
-3175 -3182 0
-3176 -3177 0
-3176 -3178 0
-3176 -3179 0
-3176 -3180 0
-3176 -3181 0
-3176 -3182 0
-3177 -3178 0
-3177 -3179 0
-3177 -3180 0
-3177 -3181 0
-3177 -3182 0
-3178 -3179 0
-3178 -3180 0
-3178 -3181 0
-3178 -3182 0
-3179 -3180 0
-3179 -3181 0
-3179 -3182 0
-3180 -3181 0
-3180 -3182 0
-3181 -3182 0
